num_tasks=93;
num_machines=3;
comp_cost=[|0, 0, 0, 
|142, 77, 58,
|104, 58, 91,
|77, 124, 50,
|127, 96, 83,
|100, 136, 68,
|94, 94, 50,
|122, 98, 62,
|117, 78, 72,
|118, 57, 53,
|109, 117, 147,
|109, 128, 52,
|78, 50, 76,
|84, 104, 78,
|139, 50, 108,
|77, 91, 125,
|73, 125, 86,
|94, 113, 77,
|108, 144, 84,
|121, 120, 101,
|128, 125, 58,
|116, 56, 92,
|132, 99, 105,
|71, 63, 65,
|53, 143, 110,
|65, 69, 114,
|140, 128, 100,
|116, 103, 134,
|56, 83, 67,
|87, 91, 142,
|69, 145, 110,
|96, 70, 131,
|83, 147, 114,
|58, 79, 53,
|61, 58, 132,
|84, 67, 72,
|96, 81, 147,
|62, 144, 83,
|87, 89, 104,
|127, 55, 67,
|96, 95, 69,
|131, 119, 59,
|108, 66, 122,
|132, 72, 61,
|139, 135, 127,
|98, 69, 73,
|98, 74, 105,
|78, 148, 63,
|121, 84, 122,
|91, 143, 133,
|126, 119, 55,
|110, 102, 76,
|127, 116, 140,
|147, 75, 126,
|118, 114, 125,
|127, 122, 142,
|92, 147, 105,
|130, 60, 61,
|59, 74, 123,
|86, 100, 84,
|146, 101, 109,
|83, 93, 113,
|143, 87, 120,
|141, 85, 56,
|79, 128, 110,
|142, 93, 132,
|105, 55, 86,
|123, 116, 112,
|97, 86, 87,
|95, 111, 89,
|103, 66, 58,
|82, 76, 54,
|54, 98, 124,
|123, 95, 111,
|55, 66, 129,
|128, 80, 90,
|93, 128, 140,
|134, 85, 141,
|99, 146, 60,
|144, 89, 91,
|109, 139, 82,
|126, 54, 77,
|72, 84, 79,
|51, 114, 99,
|132, 97, 123,
|141, 115, 100,
|97, 55, 144,
|140, 79, 78,
|60, 55, 145,
|119, 93, 91,
|85, 62, 65,
|123, 58, 130,
|0, 0, 0|];
comm_cost=[|0,0,0,0,0,0,0,0,0,0,0,0,0,0,0,0,0,0,0,0,0,0,0,0,0,0,0,0,0,0,0,0,0,0,0,0,0
,0,0,0,0,0,0,0,0,0,0,0,0,0,0,0,0,0,0,0,0,0,0,0,0,0,0,0,0,0,0,0,0,0,0,0,0,0
,0,0,0,0,0,0,0,0,0,0,0,0,0,0,0,0,0,0,0,
|0,0,126,79,123,126,52,100,91,69,51,76,0,0,0,0,0,0
,0,0,0,0,0,0,0,0,0,0,0,0,0,0,0,0,0,0
,0,0,0,0,0,0,0,0,0,0,0,0,0,0,0,0,0,0
,0,0,0,0,0,0,0,0,0,0,0,0,0,0,0,0,0,0
,0,0,0,0,0,0,0,0,0,0,0,0,0,0,0,0,0,0
,0,0,0,
|0,126,0,0,0,0,0,0,0,0,0,0,85,103,134,126,60,0
,0,0,0,0,0,0,0,0,0,0,0,0,0,0,0,0,0,0
,0,0,0,0,0,0,0,0,0,0,0,0,0,0,0,0,0,0
,0,0,0,0,0,0,0,0,0,0,0,0,0,0,0,0,0,0
,0,0,0,0,0,0,0,0,0,0,0,0,0,0,0,0,0,0
,0,0,0,
|0,79,0,0,0,0,0,0,0,0,0,0,0,0,0,0,0,50
,113,56,95,69,0,0,0,0,0,0,0,0,0,0,0,0,0,0
,0,0,0,0,0,0,0,0,0,0,0,0,0,0,0,0,0,0
,0,0,0,0,0,0,0,0,0,0,0,0,0,0,0,0,0,0
,0,0,0,0,0,0,0,0,0,0,0,0,0,0,0,0,0,0
,0,0,0,
|0,123,0,0,0,0,0,0,0,0,0,0,0,0,0,0,0,0
,0,0,0,0,74,55,142,118,82,0,0,0,0,0,0,0,0,0
,0,0,0,0,0,0,0,0,0,0,0,0,0,0,0,0,0,0
,0,0,0,0,0,0,0,0,0,0,0,0,0,0,0,0,0,0
,0,0,0,0,0,0,0,0,0,0,0,0,0,0,0,0,0,0
,0,0,0,
|0,126,0,0,0,0,0,0,0,0,0,0,0,0,0,0,0,0
,0,0,0,0,0,0,0,0,0,73,78,115,62,66,0,0,0,0
,0,0,0,0,0,0,0,0,0,0,0,0,0,0,0,0,0,0
,0,0,0,0,0,0,0,0,0,0,0,0,0,0,0,0,0,0
,0,0,0,0,0,0,0,0,0,0,0,0,0,0,0,0,0,0
,0,0,0,
|0,52,0,0,0,0,0,0,0,0,0,0,0,0,0,0,0,0
,0,0,0,0,0,0,0,0,0,0,0,0,0,0,125,122,128,132
,93,0,0,0,0,0,0,0,0,0,0,0,0,0,0,0,0,0
,0,0,0,0,0,0,0,0,0,0,0,0,0,0,0,0,0,0
,0,0,0,0,0,0,0,0,0,0,0,0,0,0,0,0,0,0
,0,0,0,
|0,100,0,0,0,0,0,0,0,0,0,0,78,0,0,0,0,77
,0,0,0,0,139,0,0,0,0,143,0,0,0,0,84,0,0,0
,0,0,0,0,0,0,0,0,0,0,0,0,0,0,0,0,0,0
,0,0,0,0,0,0,0,0,0,0,0,0,0,0,0,0,0,0
,0,0,0,0,0,0,0,0,0,0,0,0,0,0,0,0,0,0
,0,0,0,
|0,91,0,0,0,0,0,0,0,0,0,0,0,89,0,0,0,0
,144,0,0,0,0,102,0,0,0,0,58,0,0,0,0,77,0,0
,0,0,0,0,0,0,0,0,0,0,0,0,0,0,0,0,0,0
,0,0,0,0,0,0,0,0,0,0,0,0,0,0,0,0,0,0
,0,0,0,0,0,0,0,0,0,0,0,0,0,0,0,0,0,0
,0,0,0,
|0,69,0,0,0,0,0,0,0,0,0,0,0,0,69,0,0,0
,0,107,0,0,0,0,66,0,0,0,0,136,0,0,0,0,77,0
,0,0,0,0,0,0,0,0,0,0,0,0,0,0,0,0,0,0
,0,0,0,0,0,0,0,0,0,0,0,0,0,0,0,0,0,0
,0,0,0,0,0,0,0,0,0,0,0,0,0,0,0,0,0,0
,0,0,0,
|0,51,0,0,0,0,0,0,0,0,0,0,0,0,0,127,0,0
,0,0,144,0,0,0,0,134,0,0,0,0,113,0,0,0,0,135
,0,0,0,0,0,0,0,0,0,0,0,0,0,0,0,0,0,0
,0,0,0,0,0,0,0,0,0,0,0,0,0,0,0,0,0,0
,0,0,0,0,0,0,0,0,0,0,0,0,0,0,0,0,0,0
,0,0,0,
|0,76,0,0,0,0,0,0,0,0,0,0,0,0,0,0,54,0
,0,0,0,147,0,0,0,0,140,0,0,0,0,114,0,0,0,0
,52,0,0,0,0,0,0,0,0,0,0,0,0,0,0,0,0,0
,0,0,0,0,0,0,0,0,0,0,0,0,0,0,0,0,0,0
,0,0,0,0,0,0,0,0,0,0,0,0,0,0,0,0,0,0
,0,0,0,
|0,0,85,0,0,0,0,78,0,0,0,0,0,0,0,0,0,0
,0,0,0,0,0,0,0,0,0,0,0,0,0,0,0,0,0,0
,0,100,0,0,0,0,0,0,0,0,0,0,0,0,0,0,0,0
,0,0,0,0,0,0,0,0,0,0,0,0,0,0,0,0,0,0
,0,0,0,0,0,0,0,0,0,0,0,0,0,0,0,0,0,0
,0,0,0,
|0,0,103,0,0,0,0,0,89,0,0,0,0,0,0,0,0,0
,0,0,0,0,0,0,0,0,0,0,0,0,0,0,0,0,0,0
,0,0,0,0,0,0,90,0,0,0,0,0,0,0,0,0,0,0
,0,0,0,0,0,0,0,0,0,0,0,0,0,0,0,0,0,0
,0,0,0,0,0,0,0,0,0,0,0,0,0,0,0,0,0,0
,0,0,0,
|0,0,134,0,0,0,0,0,0,69,0,0,0,0,0,0,0,0
,0,0,0,0,0,0,0,0,0,0,0,0,0,0,0,0,0,0
,0,0,0,0,0,0,0,0,0,0,0,125,0,0,0,0,0,0
,0,0,0,0,0,0,0,0,0,0,0,0,0,0,0,0,0,0
,0,0,0,0,0,0,0,0,0,0,0,0,0,0,0,0,0,0
,0,0,0,
|0,0,126,0,0,0,0,0,0,0,127,0,0,0,0,0,0,0
,0,0,0,0,0,0,0,0,0,0,0,0,0,0,0,0,0,0
,0,0,0,0,0,0,0,0,0,0,0,0,0,0,0,0,81,0
,0,0,0,0,0,0,0,0,0,0,0,0,0,0,0,0,0,0
,0,0,0,0,0,0,0,0,0,0,0,0,0,0,0,0,0,0
,0,0,0,
|0,0,60,0,0,0,0,0,0,0,0,54,0,0,0,0,0,0,0,0,0,0,0,0
,0,0,0,0,0,0,0,0,0,0,0,0,0,0,0,0,0,0,0,0,0,0,0,0
,0,0,0,0,0,0,0,0,0,53,0,0,0,0,0,0,0,0,0,0,0,0,0,0
,0,0,0,0,0,0,0,0,0,0,0,0,0,0,0,0,0,0,0,0,0,
|0,0,0,50,0,0,0,77,0,0,0,0,0,0,0,0,0,0
,0,0,0,0,0,0,0,0,0,0,0,0,0,0,0,0,0,0
,0,0,131,0,0,0,0,0,0,0,0,0,0,0,0,0,0,0
,0,0,0,0,0,0,0,0,0,0,0,0,0,0,0,0,0,0
,0,0,0,0,0,0,0,0,0,0,0,0,0,0,0,0,0,0
,0,0,0,
|0,0,0,113,0,0,0,0,144,0,0,0,0,0,0,0,0,0
,0,0,0,0,0,0,0,0,0,0,0,0,0,0,0,0,0,0
,0,0,0,0,0,0,0,59,0,0,0,0,0,0,0,0,0,0
,0,0,0,0,0,0,0,0,0,0,0,0,0,0,0,0,0,0
,0,0,0,0,0,0,0,0,0,0,0,0,0,0,0,0,0,0
,0,0,0,
|0,0,0,56,0,0,0,0,0,107,0,0,0,0,0,0,0,0
,0,0,0,0,0,0,0,0,0,0,0,0,0,0,0,0,0,0
,0,0,0,0,0,0,0,0,0,0,0,0,59,0,0,0,0,0
,0,0,0,0,0,0,0,0,0,0,0,0,0,0,0,0,0,0
,0,0,0,0,0,0,0,0,0,0,0,0,0,0,0,0,0,0
,0,0,0,
|0,0,0,95,0,0,0,0,0,0,144,0,0,0,0,0,0,0
,0,0,0,0,0,0,0,0,0,0,0,0,0,0,0,0,0,0
,0,0,0,0,0,0,0,0,0,0,0,0,0,0,0,0,0,136
,0,0,0,0,0,0,0,0,0,0,0,0,0,0,0,0,0,0
,0,0,0,0,0,0,0,0,0,0,0,0,0,0,0,0,0,0
,0,0,0,
|0,0,0,69,0,0,0,0,0,0,0,147,0,0,0,0,0,0
,0,0,0,0,0,0,0,0,0,0,0,0,0,0,0,0,0,0
,0,0,0,0,0,0,0,0,0,0,0,0,0,0,0,0,0,0
,0,0,0,0,86,0,0,0,0,0,0,0,0,0,0,0,0,0
,0,0,0,0,0,0,0,0,0,0,0,0,0,0,0,0,0,0
,0,0,0,
|0,0,0,0,74,0,0,139,0,0,0,0,0,0,0,0,0,0
,0,0,0,0,0,0,0,0,0,0,0,0,0,0,0,0,0,0
,0,0,0,66,0,0,0,0,0,0,0,0,0,0,0,0,0,0
,0,0,0,0,0,0,0,0,0,0,0,0,0,0,0,0,0,0
,0,0,0,0,0,0,0,0,0,0,0,0,0,0,0,0,0,0
,0,0,0,
|0,0,0,0,55,0,0,0,102,0,0,0,0,0,0,0,0,0
,0,0,0,0,0,0,0,0,0,0,0,0,0,0,0,0,0,0
,0,0,0,0,0,0,0,0,141,0,0,0,0,0,0,0,0,0
,0,0,0,0,0,0,0,0,0,0,0,0,0,0,0,0,0,0
,0,0,0,0,0,0,0,0,0,0,0,0,0,0,0,0,0,0
,0,0,0,
|0,0,0,0,142,0,0,0,0,66,0,0,0,0,0,0,0,0
,0,0,0,0,0,0,0,0,0,0,0,0,0,0,0,0,0,0
,0,0,0,0,0,0,0,0,0,0,0,0,0,73,0,0,0,0
,0,0,0,0,0,0,0,0,0,0,0,0,0,0,0,0,0,0
,0,0,0,0,0,0,0,0,0,0,0,0,0,0,0,0,0,0
,0,0,0,
|0,0,0,0,118,0,0,0,0,0,134,0,0,0,0,0,0,0
,0,0,0,0,0,0,0,0,0,0,0,0,0,0,0,0,0,0
,0,0,0,0,0,0,0,0,0,0,0,0,0,0,0,0,0,0
,124,0,0,0,0,0,0,0,0,0,0,0,0,0,0,0,0,0
,0,0,0,0,0,0,0,0,0,0,0,0,0,0,0,0,0,0
,0,0,0,
|0,0,0,0,82,0,0,0,0,0,0,140,0,0,0,0,0,0
,0,0,0,0,0,0,0,0,0,0,0,0,0,0,0,0,0,0
,0,0,0,0,0,0,0,0,0,0,0,0,0,0,0,0,0,0
,0,0,0,0,0,130,0,0,0,0,0,0,0,0,0,0,0,0
,0,0,0,0,0,0,0,0,0,0,0,0,0,0,0,0,0,0
,0,0,0,
|0,0,0,0,0,73,0,143,0,0,0,0,0,0,0,0,0,0
,0,0,0,0,0,0,0,0,0,0,0,0,0,0,0,0,0,0
,0,0,0,0,92,0,0,0,0,0,0,0,0,0,0,0,0,0
,0,0,0,0,0,0,0,0,0,0,0,0,0,0,0,0,0,0
,0,0,0,0,0,0,0,0,0,0,0,0,0,0,0,0,0,0
,0,0,0,
|0,0,0,0,0,78,0,0,58,0,0,0,0,0,0,0,0,0,0,0,0,0,0,0
,0,0,0,0,0,0,0,0,0,0,0,0,0,0,0,0,0,0,0,0,0,56,0,0
,0,0,0,0,0,0,0,0,0,0,0,0,0,0,0,0,0,0,0,0,0,0,0,0
,0,0,0,0,0,0,0,0,0,0,0,0,0,0,0,0,0,0,0,0,0,
|0,0,0,0,0,115,0,0,0,136,0,0,0,0,0,0,0,0
,0,0,0,0,0,0,0,0,0,0,0,0,0,0,0,0,0,0
,0,0,0,0,0,0,0,0,0,0,0,0,0,0,78,0,0,0
,0,0,0,0,0,0,0,0,0,0,0,0,0,0,0,0,0,0
,0,0,0,0,0,0,0,0,0,0,0,0,0,0,0,0,0,0
,0,0,0,
|0,0,0,0,0,62,0,0,0,0,113,0,0,0,0,0,0,0
,0,0,0,0,0,0,0,0,0,0,0,0,0,0,0,0,0,0
,0,0,0,0,0,0,0,0,0,0,0,0,0,0,0,0,0,0
,0,97,0,0,0,0,0,0,0,0,0,0,0,0,0,0,0,0
,0,0,0,0,0,0,0,0,0,0,0,0,0,0,0,0,0,0
,0,0,0,
|0,0,0,0,0,66,0,0,0,0,0,114,0,0,0,0,0,0
,0,0,0,0,0,0,0,0,0,0,0,0,0,0,0,0,0,0
,0,0,0,0,0,0,0,0,0,0,0,0,0,0,0,0,0,0
,0,0,0,0,0,0,83,0,0,0,0,0,0,0,0,0,0,0
,0,0,0,0,0,0,0,0,0,0,0,0,0,0,0,0,0,0
,0,0,0,
|0,0,0,0,0,0,125,84,0,0,0,0,0,0,0,0,0,0
,0,0,0,0,0,0,0,0,0,0,0,0,0,0,0,0,0,0
,0,0,0,0,0,81,0,0,0,0,0,0,0,0,0,0,0,0
,0,0,0,0,0,0,0,0,0,0,0,0,0,0,0,0,0,0
,0,0,0,0,0,0,0,0,0,0,0,0,0,0,0,0,0,0
,0,0,0,
|0,0,0,0,0,0,122,0,77,0,0,0,0,0,0,0,0,0
,0,0,0,0,0,0,0,0,0,0,0,0,0,0,0,0,0,0
,0,0,0,0,0,0,0,0,0,0,75,0,0,0,0,0,0,0
,0,0,0,0,0,0,0,0,0,0,0,0,0,0,0,0,0,0
,0,0,0,0,0,0,0,0,0,0,0,0,0,0,0,0,0,0
,0,0,0,
|0,0,0,0,0,0,128,0,0,77,0,0,0,0,0,0,0,0
,0,0,0,0,0,0,0,0,0,0,0,0,0,0,0,0,0,0
,0,0,0,0,0,0,0,0,0,0,0,0,0,0,0,80,0,0
,0,0,0,0,0,0,0,0,0,0,0,0,0,0,0,0,0,0
,0,0,0,0,0,0,0,0,0,0,0,0,0,0,0,0,0,0
,0,0,0,
|0,0,0,0,0,0,132,0,0,0,135,0,0,0,0,0,0,0
,0,0,0,0,0,0,0,0,0,0,0,0,0,0,0,0,0,0
,0,0,0,0,0,0,0,0,0,0,0,0,0,0,0,0,0,0
,0,0,57,0,0,0,0,0,0,0,0,0,0,0,0,0,0,0
,0,0,0,0,0,0,0,0,0,0,0,0,0,0,0,0,0,0
,0,0,0,
|0,0,0,0,0,0,93,0,0,0,0,52,0,0,0,0,0,0
,0,0,0,0,0,0,0,0,0,0,0,0,0,0,0,0,0,0
,0,0,0,0,0,0,0,0,0,0,0,0,0,0,0,0,0,0
,0,0,0,0,0,0,0,132,0,0,0,0,0,0,0,0,0,0
,0,0,0,0,0,0,0,0,0,0,0,0,0,0,0,0,0,0
,0,0,0,
|0,0,0,0,0,0,0,0,0,0,0,0,100,0,0,0,0,0
,0,0,0,0,0,0,0,0,0,0,0,0,0,0,0,0,0,0
,0,0,74,123,130,65,142,0,0,0,0,94,0,0,0,0,116,0
,0,0,0,53,0,0,0,0,0,0,0,0,0,0,0,0,0,0
,0,0,0,0,0,0,0,0,0,0,0,0,0,0,0,0,0,0
,0,0,0,
|0,0,0,0,0,0,0,0,0,0,0,0,0,0,0,0,0,131
,0,0,0,0,0,0,0,0,0,0,0,0,0,0,0,0,0,0
,0,74,0,0,0,0,0,134,0,0,0,0,105,0,0,0,0,53
,0,0,0,0,77,0,0,0,0,0,0,0,0,0,0,0,0,0
,0,0,0,0,0,0,0,0,0,0,0,0,0,0,0,0,0,0
,0,0,0,
|0,0,0,0,0,0,0,0,0,0,0,0,0,0,0,0,0,0
,0,0,0,0,66,0,0,0,0,0,0,0,0,0,0,0,0,0
,0,123,0,0,0,0,0,0,85,0,0,0,0,88,0,0,0,0
,138,0,0,0,0,147,0,0,0,0,0,0,0,0,0,0,0,0
,0,0,0,0,0,0,0,0,0,0,0,0,0,0,0,0,0,0
,0,0,0,
|0,0,0,0,0,0,0,0,0,0,0,0,0,0,0,0,0,0
,0,0,0,0,0,0,0,0,0,92,0,0,0,0,0,0,0,0
,0,130,0,0,0,0,0,0,0,98,0,0,0,0,112,0,0,0
,0,102,0,0,0,0,126,0,0,0,0,0,0,0,0,0,0,0
,0,0,0,0,0,0,0,0,0,0,0,0,0,0,0,0,0,0
,0,0,0,
|0,0,0,0,0,0,0,0,0,0,0,0,0,0,0,0,0,0
,0,0,0,0,0,0,0,0,0,0,0,0,0,0,81,0,0,0
,0,65,0,0,0,0,0,0,0,0,113,0,0,0,0,110,0,0
,0,0,108,0,0,0,0,92,0,0,0,0,0,0,0,0,0,0
,0,0,0,0,0,0,0,0,0,0,0,0,0,0,0,0,0,0
,0,0,0,
|0,0,0,0,0,0,0,0,0,0,0,0,0,90,0,0,0,0
,0,0,0,0,0,0,0,0,0,0,0,0,0,0,0,0,0,0
,0,142,0,0,0,0,0,80,76,104,108,0,0,0,0,0,0,0
,0,0,0,0,0,0,0,0,0,0,0,0,0,0,0,0,0,0
,0,0,0,0,0,0,0,0,0,0,0,0,0,0,0,0,0,0
,0,0,0,
|0,0,0,0,0,0,0,0,0,0,0,0,0,0,0,0,0,0
,59,0,0,0,0,0,0,0,0,0,0,0,0,0,0,0,0,0
,0,0,134,0,0,0,80,0,0,0,0,0,0,0,0,0,0,0
,0,0,0,0,0,0,0,0,79,0,0,0,0,0,0,0,0,0
,0,0,0,0,0,0,0,0,0,0,0,0,0,0,0,0,0,0
,0,0,0,
|0,0,0,0,0,0,0,0,0,0,0,0,0,0,0,0,0,0
,0,0,0,0,0,141,0,0,0,0,0,0,0,0,0,0,0,0
,0,0,0,85,0,0,76,0,0,0,0,0,0,0,0,0,0,0
,0,0,0,0,0,0,0,0,0,139,0,0,0,0,0,0,0,0
,0,0,0,0,0,0,0,0,0,0,0,0,0,0,0,0,0,0
,0,0,0,
|0,0,0,0,0,0,0,0,0,0,0,0,0,0,0,0,0,0
,0,0,0,0,0,0,0,0,0,0,56,0,0,0,0,0,0,0
,0,0,0,0,98,0,104,0,0,0,0,0,0,0,0,0,0,0
,0,0,0,0,0,0,0,0,0,0,141,0,0,0,0,0,0,0
,0,0,0,0,0,0,0,0,0,0,0,0,0,0,0,0,0,0
,0,0,0,
|0,0,0,0,0,0,0,0,0,0,0,0,0,0,0,0,0,0
,0,0,0,0,0,0,0,0,0,0,0,0,0,0,0,75,0,0
,0,0,0,0,0,113,108,0,0,0,0,0,0,0,0,0,0,0
,0,0,0,0,0,0,0,0,0,0,0,109,0,0,0,0,0,0
,0,0,0,0,0,0,0,0,0,0,0,0,0,0,0,0,0,0
,0,0,0,
|0,0,0,0,0,0,0,0,0,0,0,0,0,0,125,0,0,0
,0,0,0,0,0,0,0,0,0,0,0,0,0,0,0,0,0,0
,0,94,0,0,0,0,0,0,0,0,0,0,124,109,112,122,0,0
,0,0,0,0,0,0,0,0,0,0,0,0,0,0,0,0,0,0
,0,0,0,0,0,0,0,0,0,0,0,0,0,0,0,0,0,0
,0,0,0,
|0,0,0,0,0,0,0,0,0,0,0,0,0,0,0,0,0,0
,0,59,0,0,0,0,0,0,0,0,0,0,0,0,0,0,0,0
,0,0,105,0,0,0,0,0,0,0,0,124,0,0,0,0,0,0
,0,0,0,0,0,0,0,0,0,0,0,0,62,0,0,0,0,0
,0,0,0,0,0,0,0,0,0,0,0,0,0,0,0,0,0,0
,0,0,0,
|0,0,0,0,0,0,0,0,0,0,0,0,0,0,0,0,0,0
,0,0,0,0,0,0,73,0,0,0,0,0,0,0,0,0,0,0
,0,0,0,88,0,0,0,0,0,0,0,109,0,0,0,0,0,0
,0,0,0,0,0,0,0,0,0,0,0,0,0,133,0,0,0,0
,0,0,0,0,0,0,0,0,0,0,0,0,0,0,0,0,0,0
,0,0,0,
|0,0,0,0,0,0,0,0,0,0,0,0,0,0,0,0,0,0
,0,0,0,0,0,0,0,0,0,0,0,78,0,0,0,0,0,0
,0,0,0,0,112,0,0,0,0,0,0,112,0,0,0,0,0,0
,0,0,0,0,0,0,0,0,0,0,0,0,0,0,91,0,0,0
,0,0,0,0,0,0,0,0,0,0,0,0,0,0,0,0,0,0
,0,0,0,
|0,0,0,0,0,0,0,0,0,0,0,0,0,0,0,0,0,0
,0,0,0,0,0,0,0,0,0,0,0,0,0,0,0,0,80,0
,0,0,0,0,0,110,0,0,0,0,0,122,0,0,0,0,0,0
,0,0,0,0,0,0,0,0,0,0,0,0,0,0,0,148,0,0
,0,0,0,0,0,0,0,0,0,0,0,0,0,0,0,0,0,0
,0,0,0,
|0,0,0,0,0,0,0,0,0,0,0,0,0,0,0,81,0,0
,0,0,0,0,0,0,0,0,0,0,0,0,0,0,0,0,0,0
,0,116,0,0,0,0,0,0,0,0,0,0,0,0,0,0,0,68
,72,56,111,0,0,0,0,0,0,0,0,0,0,0,0,0,0,0
,0,0,0,0,0,0,0,0,0,0,0,0,0,0,0,0,0,0
,0,0,0,
|0,0,0,0,0,0,0,0,0,0,0,0,0,0,0,0,0,0
,0,0,136,0,0,0,0,0,0,0,0,0,0,0,0,0,0,0
,0,0,53,0,0,0,0,0,0,0,0,0,0,0,0,0,68,0
,0,0,0,0,0,0,0,0,0,0,0,0,0,0,0,0,121,0
,0,0,0,0,0,0,0,0,0,0,0,0,0,0,0,0,0,0
,0,0,0,
|0,0,0,0,0,0,0,0,0,0,0,0,0,0,0,0,0,0
,0,0,0,0,0,0,0,124,0,0,0,0,0,0,0,0,0,0
,0,0,0,138,0,0,0,0,0,0,0,0,0,0,0,0,72,0
,0,0,0,0,0,0,0,0,0,0,0,0,0,0,0,0,0,122
,0,0,0,0,0,0,0,0,0,0,0,0,0,0,0,0,0,0
,0,0,0,
|0,0,0,0,0,0,0,0,0,0,0,0,0,0,0,0,0,0
,0,0,0,0,0,0,0,0,0,0,0,0,97,0,0,0,0,0
,0,0,0,0,102,0,0,0,0,0,0,0,0,0,0,0,56,0
,0,0,0,0,0,0,0,0,0,0,0,0,0,0,0,0,0,0
,101,0,0,0,0,0,0,0,0,0,0,0,0,0,0,0,0,0
,0,0,0,
|0,0,0,0,0,0,0,0,0,0,0,0,0,0,0,0,0,0
,0,0,0,0,0,0,0,0,0,0,0,0,0,0,0,0,0,57
,0,0,0,0,0,108,0,0,0,0,0,0,0,0,0,0,111,0
,0,0,0,0,0,0,0,0,0,0,0,0,0,0,0,0,0,0
,0,82,0,0,0,0,0,0,0,0,0,0,0,0,0,0,0,0
,0,0,0,
|0,0,0,0,0,0,0,0,0,0,0,0,0,0,0,0,53,0
,0,0,0,0,0,0,0,0,0,0,0,0,0,0,0,0,0,0
,0,53,0,0,0,0,0,0,0,0,0,0,0,0,0,0,0,0
,0,0,0,0,143,134,141,76,0,0,0,0,0,0,0,0,0,0
,0,0,0,0,0,0,0,0,0,0,0,0,0,0,0,0,0,0
,0,0,0,
|0,0,0,0,0,0,0,0,0,0,0,0,0,0,0,0,0,0
,0,0,0,86,0,0,0,0,0,0,0,0,0,0,0,0,0,0
,0,0,77,0,0,0,0,0,0,0,0,0,0,0,0,0,0,0
,0,0,0,143,0,0,0,0,0,0,0,0,0,0,0,0,0,0
,0,0,100,0,0,0,0,0,0,0,0,0,0,0,0,0,0,0
,0,0,0,
|0,0,0,0,0,0,0,0,0,0,0,0,0,0,0,0,0,0
,0,0,0,0,0,0,0,0,130,0,0,0,0,0,0,0,0,0
,0,0,0,147,0,0,0,0,0,0,0,0,0,0,0,0,0,0
,0,0,0,134,0,0,0,0,0,0,0,0,0,0,0,0,0,0
,0,0,0,80,0,0,0,0,0,0,0,0,0,0,0,0,0,0
,0,0,0,
|0,0,0,0,0,0,0,0,0,0,0,0,0,0,0,0,0,0
,0,0,0,0,0,0,0,0,0,0,0,0,0,83,0,0,0,0
,0,0,0,0,126,0,0,0,0,0,0,0,0,0,0,0,0,0
,0,0,0,141,0,0,0,0,0,0,0,0,0,0,0,0,0,0
,0,0,0,0,116,0,0,0,0,0,0,0,0,0,0,0,0,0
,0,0,0,
|0,0,0,0,0,0,0,0,0,0,0,0,0,0,0,0,0,0
,0,0,0,0,0,0,0,0,0,0,0,0,0,0,0,0,0,0
,132,0,0,0,0,92,0,0,0,0,0,0,0,0,0,0,0,0
,0,0,0,76,0,0,0,0,0,0,0,0,0,0,0,0,0,0
,0,0,0,0,0,78,0,0,0,0,0,0,0,0,0,0,0,0
,0,0,0,
|0,0,0,0,0,0,0,0,0,0,0,0,0,0,0,0,0,0
,0,0,0,0,0,0,0,0,0,0,0,0,0,0,0,0,0,0
,0,0,0,0,0,0,0,79,0,0,0,0,0,0,0,0,0,0
,0,0,0,0,0,0,0,0,0,133,91,68,126,0,0,0,108,0
,0,0,90,0,0,0,0,0,0,0,0,0,0,0,0,0,0,0
,0,0,0,
|0,0,0,0,0,0,0,0,0,0,0,0,0,0,0,0,0,0
,0,0,0,0,0,0,0,0,0,0,0,0,0,0,0,0,0,0
,0,0,0,0,0,0,0,0,139,0,0,0,0,0,0,0,0,0
,0,0,0,0,0,0,0,0,133,0,0,0,0,96,0,0,0,119
,0,0,0,94,0,0,0,0,0,0,0,0,0,0,0,0,0,0
,0,0,0,
|0,0,0,0,0,0,0,0,0,0,0,0,0,0,0,0,0,0
,0,0,0,0,0,0,0,0,0,0,0,0,0,0,0,0,0,0
,0,0,0,0,0,0,0,0,0,141,0,0,0,0,0,0,0,0
,0,0,0,0,0,0,0,0,91,0,0,0,0,0,73,0,0,0
,120,0,0,0,132,0,0,0,0,0,0,0,0,0,0,0,0,0
,0,0,0,
|0,0,0,0,0,0,0,0,0,0,0,0,0,0,0,0,0,0
,0,0,0,0,0,0,0,0,0,0,0,0,0,0,0,0,0,0
,0,0,0,0,0,0,0,0,0,0,109,0,0,0,0,0,0,0
,0,0,0,0,0,0,0,0,68,0,0,0,0,0,0,65,0,0
,0,99,0,0,0,128,0,0,0,0,0,0,0,0,0,0,0,0
,0,0,0,
|0,0,0,0,0,0,0,0,0,0,0,0,0,0,0,0,0,0
,0,0,0,0,0,0,0,0,0,0,0,0,0,0,0,0,0,0
,0,0,0,0,0,0,0,0,0,0,0,0,62,0,0,0,0,0
,0,0,0,0,0,0,0,0,126,0,0,0,0,74,100,63,0,0
,0,0,0,0,0,0,0,0,0,0,0,0,0,0,0,0,0,0
,0,0,0,
|0,0,0,0,0,0,0,0,0,0,0,0,0,0,0,0,0,0
,0,0,0,0,0,0,0,0,0,0,0,0,0,0,0,0,0,0
,0,0,0,0,0,0,0,0,0,0,0,0,0,133,0,0,0,0
,0,0,0,0,0,0,0,0,0,96,0,0,74,0,0,0,0,0
,0,0,0,0,0,0,125,0,0,0,0,0,0,0,0,0,0,0
,0,0,0,
|0,0,0,0,0,0,0,0,0,0,0,0,0,0,0,0,0,0
,0,0,0,0,0,0,0,0,0,0,0,0,0,0,0,0,0,0
,0,0,0,0,0,0,0,0,0,0,0,0,0,0,91,0,0,0
,0,0,0,0,0,0,0,0,0,0,73,0,100,0,0,0,0,0
,0,0,0,0,0,0,0,102,0,0,0,0,0,0,0,0,0,0
,0,0,0,
|0,0,0,0,0,0,0,0,0,0,0,0,0,0,0,0,0,0
,0,0,0,0,0,0,0,0,0,0,0,0,0,0,0,0,0,0
,0,0,0,0,0,0,0,0,0,0,0,0,0,0,0,148,0,0
,0,0,0,0,0,0,0,0,0,0,0,65,63,0,0,0,0,0
,0,0,0,0,0,0,0,0,108,0,0,0,0,0,0,0,0,0
,0,0,0,
|0,0,0,0,0,0,0,0,0,0,0,0,0,0,0,0,0,0
,0,0,0,0,0,0,0,0,0,0,0,0,0,0,0,0,0,0
,0,0,0,0,0,0,0,0,0,0,0,0,0,0,0,0,0,121
,0,0,0,0,0,0,0,0,108,0,0,0,0,0,0,0,0,96
,68,149,0,0,0,0,0,0,0,0,0,0,0,0,0,0,0,0
,0,0,0,
|0,0,0,0,0,0,0,0,0,0,0,0,0,0,0,0,0,0
,0,0,0,0,0,0,0,0,0,0,0,0,0,0,0,0,0,0
,0,0,0,0,0,0,0,0,0,0,0,0,0,0,0,0,0,0
,122,0,0,0,0,0,0,0,0,119,0,0,0,0,0,0,96,0
,0,0,0,0,0,0,0,0,0,121,0,0,0,0,0,0,0,0
,0,0,0,
|0,0,0,0,0,0,0,0,0,0,0,0,0,0,0,0,0,0
,0,0,0,0,0,0,0,0,0,0,0,0,0,0,0,0,0,0
,0,0,0,0,0,0,0,0,0,0,0,0,0,0,0,0,0,0
,0,101,0,0,0,0,0,0,0,0,120,0,0,0,0,0,68,0
,0,0,0,0,0,0,0,0,0,0,62,0,0,0,0,0,0,0
,0,0,0,
|0,0,0,0,0,0,0,0,0,0,0,0,0,0,0,0,0,0
,0,0,0,0,0,0,0,0,0,0,0,0,0,0,0,0,0,0
,0,0,0,0,0,0,0,0,0,0,0,0,0,0,0,0,0,0
,0,0,82,0,0,0,0,0,0,0,0,99,0,0,0,0,149,0
,0,0,0,0,0,0,0,0,0,0,0,82,0,0,0,0,0,0
,0,0,0,
|0,0,0,0,0,0,0,0,0,0,0,0,0,0,0,0,0,0
,0,0,0,0,0,0,0,0,0,0,0,0,0,0,0,0,0,0
,0,0,0,0,0,0,0,0,0,0,0,0,0,0,0,0,0,0
,0,0,0,0,100,0,0,0,90,0,0,0,0,0,0,0,0,0
,0,0,0,111,50,99,0,0,0,0,0,0,0,0,0,0,0,0
,0,0,0,
|0,0,0,0,0,0,0,0,0,0,0,0,0,0,0,0,0,0
,0,0,0,0,0,0,0,0,0,0,0,0,0,0,0,0,0,0
,0,0,0,0,0,0,0,0,0,0,0,0,0,0,0,0,0,0
,0,0,0,0,0,80,0,0,0,94,0,0,0,0,0,0,0,0
,0,0,111,0,0,0,0,0,0,0,0,0,55,0,0,0,0,0
,0,0,0,
|0,0,0,0,0,0,0,0,0,0,0,0,0,0,0,0,0,0
,0,0,0,0,0,0,0,0,0,0,0,0,0,0,0,0,0,0
,0,0,0,0,0,0,0,0,0,0,0,0,0,0,0,0,0,0
,0,0,0,0,0,0,116,0,0,0,132,0,0,0,0,0,0,0
,0,0,50,0,0,0,0,0,0,0,0,0,0,59,0,0,0,0
,0,0,0,
|0,0,0,0,0,0,0,0,0,0,0,0,0,0,0,0,0,0
,0,0,0,0,0,0,0,0,0,0,0,0,0,0,0,0,0,0
,0,0,0,0,0,0,0,0,0,0,0,0,0,0,0,0,0,0
,0,0,0,0,0,0,0,78,0,0,0,128,0,0,0,0,0,0
,0,0,99,0,0,0,0,0,0,0,0,0,0,0,100,0,0,0
,0,0,0,
|0,0,0,0,0,0,0,0,0,0,0,0,0,0,0,0,0,0
,0,0,0,0,0,0,0,0,0,0,0,0,0,0,0,0,0,0
,0,0,0,0,0,0,0,0,0,0,0,0,0,0,0,0,0,0
,0,0,0,0,0,0,0,0,0,0,0,0,0,125,0,0,0,0
,0,0,0,0,0,0,0,62,134,138,0,0,90,0,0,0,0,0
,0,0,0,
|0,0,0,0,0,0,0,0,0,0,0,0,0,0,0,0,0,0
,0,0,0,0,0,0,0,0,0,0,0,0,0,0,0,0,0,0
,0,0,0,0,0,0,0,0,0,0,0,0,0,0,0,0,0,0
,0,0,0,0,0,0,0,0,0,0,0,0,0,0,102,0,0,0
,0,0,0,0,0,0,62,0,0,0,145,0,0,56,0,0,0,0
,0,0,0,
|0,0,0,0,0,0,0,0,0,0,0,0,0,0,0,0,0,0
,0,0,0,0,0,0,0,0,0,0,0,0,0,0,0,0,0,0
,0,0,0,0,0,0,0,0,0,0,0,0,0,0,0,0,0,0
,0,0,0,0,0,0,0,0,0,0,0,0,0,0,0,108,0,0
,0,0,0,0,0,0,134,0,0,0,0,70,0,0,86,0,0,0
,0,0,0,
|0,0,0,0,0,0,0,0,0,0,0,0,0,0,0,0,0,0
,0,0,0,0,0,0,0,0,0,0,0,0,0,0,0,0,0,0
,0,0,0,0,0,0,0,0,0,0,0,0,0,0,0,0,0,0
,0,0,0,0,0,0,0,0,0,0,0,0,0,0,0,0,0,121
,0,0,0,0,0,0,138,0,0,0,123,139,0,0,0,0,0,0
,0,0,0,
|0,0,0,0,0,0,0,0,0,0,0,0,0,0,0,0,0,0
,0,0,0,0,0,0,0,0,0,0,0,0,0,0,0,0,0,0
,0,0,0,0,0,0,0,0,0,0,0,0,0,0,0,0,0,0
,0,0,0,0,0,0,0,0,0,0,0,0,0,0,0,0,0,0
,62,0,0,0,0,0,0,145,0,123,0,0,0,0,0,105,0,0
,0,0,0,
|0,0,0,0,0,0,0,0,0,0,0,0,0,0,0,0,0,0
,0,0,0,0,0,0,0,0,0,0,0,0,0,0,0,0,0,0
,0,0,0,0,0,0,0,0,0,0,0,0,0,0,0,0,0,0
,0,0,0,0,0,0,0,0,0,0,0,0,0,0,0,0,0,0
,0,82,0,0,0,0,0,0,70,139,0,0,0,0,0,0,119,0
,0,0,0,
|0,0,0,0,0,0,0,0,0,0,0,0,0,0,0,0,0,0
,0,0,0,0,0,0,0,0,0,0,0,0,0,0,0,0,0,0
,0,0,0,0,0,0,0,0,0,0,0,0,0,0,0,0,0,0
,0,0,0,0,0,0,0,0,0,0,0,0,0,0,0,0,0,0
,0,0,0,55,0,0,90,0,0,0,0,0,0,100,138,0,0,0
,0,0,0,
|0,0,0,0,0,0,0,0,0,0,0,0,0,0,0,0,0,0
,0,0,0,0,0,0,0,0,0,0,0,0,0,0,0,0,0,0
,0,0,0,0,0,0,0,0,0,0,0,0,0,0,0,0,0,0
,0,0,0,0,0,0,0,0,0,0,0,0,0,0,0,0,0,0
,0,0,0,0,59,0,0,56,0,0,0,0,100,0,0,0,0,68
,0,0,0,
|0,0,0,0,0,0,0,0,0,0,0,0,0,0,0,0,0,0
,0,0,0,0,0,0,0,0,0,0,0,0,0,0,0,0,0,0
,0,0,0,0,0,0,0,0,0,0,0,0,0,0,0,0,0,0
,0,0,0,0,0,0,0,0,0,0,0,0,0,0,0,0,0,0
,0,0,0,0,0,100,0,0,86,0,0,0,138,0,0,0,0,0
,141,0,0,
|0,0,0,0,0,0,0,0,0,0,0,0,0,0,0,0,0,0
,0,0,0,0,0,0,0,0,0,0,0,0,0,0,0,0,0,0
,0,0,0,0,0,0,0,0,0,0,0,0,0,0,0,0,0,0
,0,0,0,0,0,0,0,0,0,0,0,0,0,0,0,0,0,0
,0,0,0,0,0,0,0,0,0,0,105,0,0,0,0,0,140,67
,0,0,0,
|0,0,0,0,0,0,0,0,0,0,0,0,0,0,0,0,0,0
,0,0,0,0,0,0,0,0,0,0,0,0,0,0,0,0,0,0
,0,0,0,0,0,0,0,0,0,0,0,0,0,0,0,0,0,0
,0,0,0,0,0,0,0,0,0,0,0,0,0,0,0,0,0,0
,0,0,0,0,0,0,0,0,0,0,0,119,0,0,0,140,0,0
,50,0,0,
|0,0,0,0,0,0,0,0,0,0,0,0,0,0,0,0,0,0
,0,0,0,0,0,0,0,0,0,0,0,0,0,0,0,0,0,0
,0,0,0,0,0,0,0,0,0,0,0,0,0,0,0,0,0,0
,0,0,0,0,0,0,0,0,0,0,0,0,0,0,0,0,0,0
,0,0,0,0,0,0,0,0,0,0,0,0,0,68,0,67,0,0
,104,0,0,
|0,0,0,0,0,0,0,0,0,0,0,0,0,0,0,0,0,0
,0,0,0,0,0,0,0,0,0,0,0,0,0,0,0,0,0,0
,0,0,0,0,0,0,0,0,0,0,0,0,0,0,0,0,0,0
,0,0,0,0,0,0,0,0,0,0,0,0,0,0,0,0,0,0
,0,0,0,0,0,0,0,0,0,0,0,0,0,0,141,0,50,104
,0,90,0,
|0,0,0,0,0,0,0,0,0,0,0,0,0,0,0,0,0,0,0,0,0,0,0,0
,0,0,0,0,0,0,0,0,0,0,0,0,0,0,0,0,0,0,0,0,0,0,0,0
,0,0,0,0,0,0,0,0,0,0,0,0,0,0,0,0,0,0,0,0,0,0,0,0
,0,0,0,0,0,0,0,0,0,0,0,0,0,0,0,0,0,0,90,0,0,
|0,0,0,0,0,0,0,0,0,0,0,0,0,0,0,0,0,0,0,0,0,0,0,0,0,0,0,0,0,0,0,0,0,0,0,0,0
,0,0,0,0,0,0,0,0,0,0,0,0,0,0,0,0,0,0,0,0,0,0,0,0,0,0,0,0,0,0,0,0,0,0,0,0,0
,0,0,0,0,0,0,0,0,0,0,0,0,0,0,0,0,0,0,0|];
max_time=5000;
